benchmark/results/graph__15-1000-0.10-02_6/graph__15-1000-0.10-02_6_QuintonOs_Benders_primal_sub.lp
\ This file has been generated by DOcplex
\ ENCODING=ISO-8859-1
\Problem name: Quinton Bounded Benders_primal_sub

Maximize
 obj: tau
Subject To
 c1: tau <= 0.001644736842
 c2: y_a0_proc_0 + y_a0_proc_1 - tau = 0
 c3: y_a0_proc_0 <= 0
 c4: y_a0_proc_1 <= 1
 c5: tau <= 0.001338688086
 c6: y_a1_proc_0 + y_a1_proc_1 - tau = 0
 c7: y_a1_proc_0 <= 0
 c8: y_a1_proc_1 <= 1
 c9: tau <= 0.000851788756
 c10: y_a2_proc_0 + y_a2_proc_1 - tau = 0
 c11: y_a2_proc_0 <= 1
 c12: y_a2_proc_1 <= 0
 c13: tau <= 0.001597444089
 c14: y_a3_proc_0 + y_a3_proc_1 - tau = 0
 c15: y_a3_proc_0 <= 0
 c16: y_a3_proc_1 <= 1
 c17: tau <= 0.001792114695
 c18: y_a4_proc_0 + y_a4_proc_1 - tau = 0
 c19: y_a4_proc_0 <= 0
 c20: y_a4_proc_1 <= 1
 c21: tau <= 0.000806451613
 c22: y_a5_proc_0 - tau = 0
 c23: y_a5_proc_0 <= 1
 c24: tau <= 0.001014198783
 c25: y_a6_proc_0 + y_a6_proc_1 - tau = 0
 c26: y_a6_proc_0 <= 0
 c27: y_a6_proc_1 <= 1
 c28: tau <= 0.001035196687
 c29: y_a7_proc_0 + y_a7_proc_1 - tau = 0
 c30: y_a7_proc_0 <= 1
 c31: y_a7_proc_1 <= 0
 c32: tau <= 0.001011122346
 c33: y_a8_proc_0 + y_a8_proc_1 - tau = 0
 c34: y_a8_proc_0 <= 1
 c35: y_a8_proc_1 <= 0
 c36: tau <= 0.001236093943
 c37: y_a9_proc_0 - tau = 0
 c38: y_a9_proc_0 <= 1
 c39: tau <= 0.001742160279
 c40: y_a10_proc_0 + y_a10_proc_1 - tau = 0
 c41: y_a10_proc_0 <= 0
 c42: y_a10_proc_1 <= 1
 c43: tau <= 0.001503759398
 c44: y_a11_proc_0 + y_a11_proc_1 - tau = 0
 c45: y_a11_proc_0 <= 0
 c46: y_a11_proc_1 <= 1
 c47: tau <= 0.000926784059
 c48: y_a12_proc_1 - tau = 0
 c49: y_a12_proc_1 <= 1
 c50: tau <= 0.001385041551
 c51: y_a13_proc_0 + y_a13_proc_1 - tau = 0
 c52: y_a13_proc_0 <= 1
 c53: y_a13_proc_1 <= 0
 c54: tau <= 0.001655629139
 c55: y_a14_proc_0 + y_a14_proc_1 - tau = 0
 c56: y_a14_proc_0 <= 0
 c57: y_a14_proc_1 <= 1
 c58: u_a0 - u_a1 - 1255 y_a1_proc_0 - 747 y_a1_proc_1 >= 0
 c59: u_a1 - u_a2 - 1174 y_a2_proc_0 - 1007 y_a2_proc_1 >= 0
 c60: u_a3 - u_a1 - 1255 y_a1_proc_0 - 747 y_a1_proc_1 >= -1
 c61: u_a3 - u_a4 - 1003 y_a4_proc_0 - 558 y_a4_proc_1 >= 0
 c62: u_a5 - u_a3 - 939 y_a3_proc_0 - 626 y_a3_proc_1 >= 0
 c63: u_a4 - u_a6 - 1103 y_a6_proc_0 - 986 y_a6_proc_1 >= 0
 c64: u_a2 - u_a7 - 966 y_a7_proc_0 - 1174 y_a7_proc_1 >= 0
 c65: u_a8 - u_a1 - 1255 y_a1_proc_0 - 747 y_a1_proc_1 >= 0
 c66: u_a6 - u_a9 - 809 y_a9_proc_0 >= 0
 c67: u_a10 - u_a7 - 966 y_a7_proc_0 - 1174 y_a7_proc_1 >= 0
 c68: u_a11 - u_a3 - 939 y_a3_proc_0 - 626 y_a3_proc_1 >= 0
 c69: u_a11 - u_a12 - 1079 y_a12_proc_1 >= 0
 c70: u_a7 - u_a13 - 722 y_a13_proc_0 - 726 y_a13_proc_1 >= -1
 c71: u_a14 - u_a4 - 1003 y_a4_proc_0 - 558 y_a4_proc_1 >= 0
 c72: u_a6 - u_a13 - 722 y_a13_proc_0 - 726 y_a13_proc_1 >= -1
 c73: u_a9 - u_a8 - 989 y_a8_proc_0 - 1179 y_a8_proc_1 >= -1
 c74: u_a14 - u_a5 - 1240 y_a5_proc_0 >= 0
 c75: u_a12 - u_a14 - 1028 y_a14_proc_0 - 604 y_a14_proc_1 >= 0
 c76: u_a9 - u_a10 - 858 y_a10_proc_0 - 574 y_a10_proc_1 >= 0
 c77: - 1240 y_a5_proc_0 >= -1
 c78: u_a12 - u_a0 - 983 y_a0_proc_0 - 608 y_a0_proc_1 >= 0
 c79: u_a9 - u_a14 - 1028 y_a14_proc_0 - 604 y_a14_proc_1 >= -1
 c80: u_a6 - u_a8 - 989 y_a8_proc_0 - 1179 y_a8_proc_1 >= -1
 c81: u_a7 - u_a11 - 1088 y_a11_proc_0 - 665 y_a11_proc_1 >= -1
 c82: u_a4 - u_a11 - 1088 y_a11_proc_0 - 665 y_a11_proc_1 >= -1
 c83: u_a14 - u_a3 - 939 y_a3_proc_0 - 626 y_a3_proc_1 >= 0
 c84: u_a13 - u_a14 - 1028 y_a14_proc_0 - 604 y_a14_proc_1 >= 0
 c85: u_a7 - u_a5 - 1240 y_a5_proc_0 >= -1
 c86: u_a1 - u_a0 - 983 y_a0_proc_0 >= -2511
 c87: u_a1 - u_a0 - 608 y_a0_proc_1 >= -1
 c88: u_a0 - u_a1 - 1255 y_a1_proc_0 >= -2510
 c89: u_a0 - u_a1 - 747 y_a1_proc_1 >= 0
 c90: u_a2 - u_a0 - 983 y_a0_proc_0 >= -1272
 c91: u_a2 - u_a0 - 608 y_a0_proc_1 >= -1272
 c92: u_a0 - u_a2 - 1174 y_a2_proc_0 >= -1239
 c93: u_a0 - u_a2 - 1007 y_a2_proc_1 >= -1239
 c94: u_a3 - u_a0 - 983 y_a0_proc_0 >= -2511
 c95: u_a3 - u_a0 - 608 y_a0_proc_1 >= -1
 c96: u_a0 - u_a3 - 939 y_a3_proc_0 >= -2510
 c97: u_a0 - u_a3 - 626 y_a3_proc_1 >= 0
 c98: u_a4 - u_a0 - 983 y_a0_proc_0 >= -2511
 c99: u_a4 - u_a0 - 608 y_a0_proc_1 >= -1
 c100: u_a0 - u_a4 - 1003 y_a4_proc_0 >= -2510
 c101: u_a0 - u_a4 - 558 y_a4_proc_1 >= 0
 c102: u_a5 - u_a0 - 983 y_a0_proc_0 >= -1239
 c103: u_a0 - u_a5 - 1240 y_a5_proc_0 >= -1272
 c104: u_a6 - u_a0 - 983 y_a0_proc_0 >= -2511
 c105: u_a6 - u_a0 - 608 y_a0_proc_1 >= -1
 c106: u_a0 - u_a6 - 1103 y_a6_proc_0 >= -2510
 c107: u_a0 - u_a6 - 986 y_a6_proc_1 >= 0
 c108: u_a7 - u_a0 - 983 y_a0_proc_0 >= -1272
 c109: u_a7 - u_a0 - 608 y_a0_proc_1 >= -1272
 c110: u_a0 - u_a7 - 966 y_a7_proc_0 >= -1239
 c111: u_a0 - u_a7 - 1174 y_a7_proc_1 >= -1239
 c112: u_a8 - u_a0 - 983 y_a0_proc_0 >= -1272
 c113: u_a8 - u_a0 - 608 y_a0_proc_1 >= -1272
 c114: u_a0 - u_a8 - 989 y_a8_proc_0 >= -1239
 c115: u_a0 - u_a8 - 1179 y_a8_proc_1 >= -1239
 c116: u_a9 - u_a0 - 983 y_a0_proc_0 >= -1272
 c117: u_a0 - u_a9 - 809 y_a9_proc_0 >= -1239
 c118: u_a10 - u_a0 - 983 y_a0_proc_0 >= -2511
 c119: u_a10 - u_a0 - 608 y_a0_proc_1 >= -1
 c120: u_a0 - u_a10 - 858 y_a10_proc_0 >= -2510
 c121: u_a0 - u_a10 - 574 y_a10_proc_1 >= 0
 c122: u_a11 - u_a0 - 983 y_a0_proc_0 >= -2510
 c123: u_a11 - u_a0 - 608 y_a0_proc_1 >= 0
 c124: u_a0 - u_a11 - 1088 y_a11_proc_0 >= -2511
 c125: u_a0 - u_a11 - 665 y_a11_proc_1 >= -1
 c126: u_a12 - u_a0 - 608 y_a0_proc_1 >= 0
 c127: u_a0 - u_a12 - 1079 y_a12_proc_1 >= -1
 c128: u_a13 - u_a0 - 983 y_a0_proc_0 >= -1272
 c129: u_a13 - u_a0 - 608 y_a0_proc_1 >= -1272
 c130: u_a0 - u_a13 - 722 y_a13_proc_0 >= -1239
 c131: u_a0 - u_a13 - 726 y_a13_proc_1 >= -1239
 c132: u_a14 - u_a0 - 983 y_a0_proc_0 >= -2510
 c133: u_a14 - u_a0 - 608 y_a0_proc_1 >= 0
 c134: u_a0 - u_a14 - 1028 y_a14_proc_0 >= -2511
 c135: u_a0 - u_a14 - 604 y_a14_proc_1 >= -1
 c136: u_a2 - u_a1 - 1255 y_a1_proc_0 >= -1272
 c137: u_a2 - u_a1 - 747 y_a1_proc_1 >= -1272
 c138: u_a1 - u_a2 - 1174 y_a2_proc_0 >= -1239
 c139: u_a1 - u_a2 - 1007 y_a2_proc_1 >= -1239
 c140: u_a3 - u_a1 - 1255 y_a1_proc_0 >= -2511
 c141: u_a3 - u_a1 - 747 y_a1_proc_1 >= -1
 c142: u_a1 - u_a3 - 939 y_a3_proc_0 >= -2510
 c143: u_a1 - u_a3 - 626 y_a3_proc_1 >= 0
 c144: u_a4 - u_a1 - 1255 y_a1_proc_0 >= -2511
 c145: u_a4 - u_a1 - 747 y_a1_proc_1 >= -1
 c146: u_a1 - u_a4 - 1003 y_a4_proc_0 >= -2510
 c147: u_a1 - u_a4 - 558 y_a4_proc_1 >= 0
 c148: u_a5 - u_a1 - 1255 y_a1_proc_0 >= -1272
 c149: u_a1 - u_a5 - 1240 y_a5_proc_0 >= -1239
 c150: u_a6 - u_a1 - 1255 y_a1_proc_0 >= -2511
 c151: u_a6 - u_a1 - 747 y_a1_proc_1 >= -1
 c152: u_a1 - u_a6 - 1103 y_a6_proc_0 >= -2510
 c153: u_a1 - u_a6 - 986 y_a6_proc_1 >= 0
 c154: u_a7 - u_a1 - 1255 y_a1_proc_0 >= -1272
 c155: u_a7 - u_a1 - 747 y_a1_proc_1 >= -1272
 c156: u_a1 - u_a7 - 966 y_a7_proc_0 >= -1239
 c157: u_a1 - u_a7 - 1174 y_a7_proc_1 >= -1239
 c158: u_a8 - u_a1 - 1255 y_a1_proc_0 >= -1239
 c159: u_a8 - u_a1 - 747 y_a1_proc_1 >= -1239
 c160: u_a1 - u_a8 - 989 y_a8_proc_0 >= -1272
 c161: u_a1 - u_a8 - 1179 y_a8_proc_1 >= -1272
 c162: u_a9 - u_a1 - 1255 y_a1_proc_0 >= -1272
 c163: u_a1 - u_a9 - 809 y_a9_proc_0 >= -1239
 c164: u_a10 - u_a1 - 1255 y_a1_proc_0 >= -2511
 c165: u_a10 - u_a1 - 747 y_a1_proc_1 >= -1
 c166: u_a1 - u_a10 - 858 y_a10_proc_0 >= -2510
 c167: u_a1 - u_a10 - 574 y_a10_proc_1 >= 0
 c168: u_a11 - u_a1 - 1255 y_a1_proc_0 >= -2510
 c169: u_a11 - u_a1 - 747 y_a1_proc_1 >= 0
 c170: u_a1 - u_a11 - 1088 y_a11_proc_0 >= -2511
 c171: u_a1 - u_a11 - 665 y_a11_proc_1 >= -1
 c172: u_a12 - u_a1 - 747 y_a1_proc_1 >= 0
 c173: u_a1 - u_a12 - 1079 y_a12_proc_1 >= -1
 c174: u_a13 - u_a1 - 1255 y_a1_proc_0 >= -1272
 c175: u_a13 - u_a1 - 747 y_a1_proc_1 >= -1272
 c176: u_a1 - u_a13 - 722 y_a13_proc_0 >= -1239
 c177: u_a1 - u_a13 - 726 y_a13_proc_1 >= -1239
 c178: u_a14 - u_a1 - 1255 y_a1_proc_0 >= -2510
 c179: u_a14 - u_a1 - 747 y_a1_proc_1 >= 0
 c180: u_a1 - u_a14 - 1028 y_a14_proc_0 >= -2511
 c181: u_a1 - u_a14 - 604 y_a14_proc_1 >= -1
 c182: u_a3 - u_a2 - 1174 y_a2_proc_0 >= -1272
 c183: u_a3 - u_a2 - 1007 y_a2_proc_1 >= -1272
 c184: u_a2 - u_a3 - 939 y_a3_proc_0 >= -1239
 c185: u_a2 - u_a3 - 626 y_a3_proc_1 >= -1239
 c186: u_a4 - u_a2 - 1174 y_a2_proc_0 >= -1272
 c187: u_a4 - u_a2 - 1007 y_a2_proc_1 >= -1272
 c188: u_a2 - u_a4 - 1003 y_a4_proc_0 >= -1239
 c189: u_a2 - u_a4 - 558 y_a4_proc_1 >= -1239
 c190: u_a5 - u_a2 - 1174 y_a2_proc_0 >= 0
 c191: u_a2 - u_a5 - 1240 y_a5_proc_0 >= -1
 c192: u_a6 - u_a2 - 1174 y_a2_proc_0 >= -1239
 c193: u_a6 - u_a2 - 1007 y_a2_proc_1 >= -1239
 c194: u_a2 - u_a6 - 1103 y_a6_proc_0 >= -1272
 c195: u_a2 - u_a6 - 986 y_a6_proc_1 >= -1272
 c196: u_a7 - u_a2 - 1174 y_a2_proc_0 >= -1
 c197: u_a7 - u_a2 - 1007 y_a2_proc_1 >= -2511
 c198: u_a2 - u_a7 - 966 y_a7_proc_0 >= 0
 c199: u_a2 - u_a7 - 1174 y_a7_proc_1 >= -2510
 c200: u_a8 - u_a2 - 1174 y_a2_proc_0 >= 0
 c201: u_a8 - u_a2 - 1007 y_a2_proc_1 >= -2510
 c202: u_a2 - u_a8 - 989 y_a8_proc_0 >= -1
 c203: u_a2 - u_a8 - 1179 y_a8_proc_1 >= -2511
 c204: u_a9 - u_a2 - 1174 y_a2_proc_0 >= -1
 c205: u_a2 - u_a9 - 809 y_a9_proc_0 >= 0
 c206: u_a10 - u_a2 - 1174 y_a2_proc_0 >= -1272
 c207: u_a10 - u_a2 - 1007 y_a2_proc_1 >= -1272
 c208: u_a2 - u_a10 - 858 y_a10_proc_0 >= -1239
 c209: u_a2 - u_a10 - 574 y_a10_proc_1 >= -1239
 c210: u_a11 - u_a2 - 1174 y_a2_proc_0 >= -1272
 c211: u_a11 - u_a2 - 1007 y_a2_proc_1 >= -1272
 c212: u_a2 - u_a11 - 1088 y_a11_proc_0 >= -1239
 c213: u_a2 - u_a11 - 665 y_a11_proc_1 >= -1239
 c214: u_a12 - u_a2 - 1007 y_a2_proc_1 >= -1272
 c215: u_a2 - u_a12 - 1079 y_a12_proc_1 >= -1239
 c216: u_a13 - u_a2 - 1174 y_a2_proc_0 >= 0
 c217: u_a13 - u_a2 - 1007 y_a2_proc_1 >= -2510
 c218: u_a2 - u_a13 - 722 y_a13_proc_0 >= -1
 c219: u_a2 - u_a13 - 726 y_a13_proc_1 >= -2511
 c220: u_a14 - u_a2 - 1174 y_a2_proc_0 >= -1272
 c221: u_a14 - u_a2 - 1007 y_a2_proc_1 >= -1272
 c222: u_a2 - u_a14 - 1028 y_a14_proc_0 >= -1239
 c223: u_a2 - u_a14 - 604 y_a14_proc_1 >= -1239
 c224: u_a4 - u_a3 - 939 y_a3_proc_0 >= -2511
 c225: u_a4 - u_a3 - 626 y_a3_proc_1 >= -1
 c226: u_a3 - u_a4 - 1003 y_a4_proc_0 >= -2510
 c227: u_a3 - u_a4 - 558 y_a4_proc_1 >= 0
 c228: u_a5 - u_a3 - 939 y_a3_proc_0 >= -1272
 c229: u_a3 - u_a5 - 1240 y_a5_proc_0 >= -1239
 c230: u_a6 - u_a3 - 939 y_a3_proc_0 >= -2511
 c231: u_a6 - u_a3 - 626 y_a3_proc_1 >= -1
 c232: u_a3 - u_a6 - 1103 y_a6_proc_0 >= -2510
 c233: u_a3 - u_a6 - 986 y_a6_proc_1 >= 0
 c234: u_a7 - u_a3 - 939 y_a3_proc_0 >= -1272
 c235: u_a7 - u_a3 - 626 y_a3_proc_1 >= -1272
 c236: u_a3 - u_a7 - 966 y_a7_proc_0 >= -1239
 c237: u_a3 - u_a7 - 1174 y_a7_proc_1 >= -1239
 c238: u_a8 - u_a3 - 939 y_a3_proc_0 >= -1239
 c239: u_a8 - u_a3 - 626 y_a3_proc_1 >= -1239
 c240: u_a3 - u_a8 - 989 y_a8_proc_0 >= -1272
 c241: u_a3 - u_a8 - 1179 y_a8_proc_1 >= -1272
 c242: u_a9 - u_a3 - 939 y_a3_proc_0 >= -1272
 c243: u_a3 - u_a9 - 809 y_a9_proc_0 >= -1239
 c244: u_a10 - u_a3 - 939 y_a3_proc_0 >= -2511
 c245: u_a10 - u_a3 - 626 y_a3_proc_1 >= -1
 c246: u_a3 - u_a10 - 858 y_a10_proc_0 >= -2510
 c247: u_a3 - u_a10 - 574 y_a10_proc_1 >= 0
 c248: u_a11 - u_a3 - 939 y_a3_proc_0 >= -2510
 c249: u_a11 - u_a3 - 626 y_a3_proc_1 >= 0
 c250: u_a3 - u_a11 - 1088 y_a11_proc_0 >= -2511
 c251: u_a3 - u_a11 - 665 y_a11_proc_1 >= -1
 c252: u_a12 - u_a3 - 626 y_a3_proc_1 >= 0
 c253: u_a3 - u_a12 - 1079 y_a12_proc_1 >= -1
 c254: u_a13 - u_a3 - 939 y_a3_proc_0 >= -1239
 c255: u_a13 - u_a3 - 626 y_a3_proc_1 >= -1239
 c256: u_a3 - u_a13 - 722 y_a13_proc_0 >= -1272
 c257: u_a3 - u_a13 - 726 y_a13_proc_1 >= -1272
 c258: u_a14 - u_a3 - 939 y_a3_proc_0 >= -2510
 c259: u_a14 - u_a3 - 626 y_a3_proc_1 >= 0
 c260: u_a3 - u_a14 - 1028 y_a14_proc_0 >= -2511
 c261: u_a3 - u_a14 - 604 y_a14_proc_1 >= -1
 c262: u_a5 - u_a4 - 1003 y_a4_proc_0 >= -1272
 c263: u_a4 - u_a5 - 1240 y_a5_proc_0 >= -1239
 c264: u_a6 - u_a4 - 1003 y_a4_proc_0 >= -2511
 c265: u_a6 - u_a4 - 558 y_a4_proc_1 >= -1
 c266: u_a4 - u_a6 - 1103 y_a6_proc_0 >= -2510
 c267: u_a4 - u_a6 - 986 y_a6_proc_1 >= 0
 c268: u_a7 - u_a4 - 1003 y_a4_proc_0 >= -1272
 c269: u_a7 - u_a4 - 558 y_a4_proc_1 >= -1272
 c270: u_a4 - u_a7 - 966 y_a7_proc_0 >= -1239
 c271: u_a4 - u_a7 - 1174 y_a7_proc_1 >= -1239
 c272: u_a8 - u_a4 - 1003 y_a4_proc_0 >= -1239
 c273: u_a8 - u_a4 - 558 y_a4_proc_1 >= -1239
 c274: u_a4 - u_a8 - 989 y_a8_proc_0 >= -1272
 c275: u_a4 - u_a8 - 1179 y_a8_proc_1 >= -1272
 c276: u_a9 - u_a4 - 1003 y_a4_proc_0 >= -1272
 c277: u_a4 - u_a9 - 809 y_a9_proc_0 >= -1239
 c278: u_a10 - u_a4 - 1003 y_a4_proc_0 >= -2511
 c279: u_a10 - u_a4 - 558 y_a4_proc_1 >= -1
 c280: u_a4 - u_a10 - 858 y_a10_proc_0 >= -2510
 c281: u_a4 - u_a10 - 574 y_a10_proc_1 >= 0
 c282: u_a11 - u_a4 - 1003 y_a4_proc_0 >= -2510
 c283: u_a11 - u_a4 - 558 y_a4_proc_1 >= 0
 c284: u_a4 - u_a11 - 1088 y_a11_proc_0 >= -2511
 c285: u_a4 - u_a11 - 665 y_a11_proc_1 >= -1
 c286: u_a12 - u_a4 - 558 y_a4_proc_1 >= 0
 c287: u_a4 - u_a12 - 1079 y_a12_proc_1 >= -1
 c288: u_a13 - u_a4 - 1003 y_a4_proc_0 >= -1272
 c289: u_a13 - u_a4 - 558 y_a4_proc_1 >= -1272
 c290: u_a4 - u_a13 - 722 y_a13_proc_0 >= -1239
 c291: u_a4 - u_a13 - 726 y_a13_proc_1 >= -1239
 c292: u_a14 - u_a4 - 1003 y_a4_proc_0 >= -2510
 c293: u_a14 - u_a4 - 558 y_a4_proc_1 >= 0
 c294: u_a4 - u_a14 - 1028 y_a14_proc_0 >= -2511
 c295: u_a4 - u_a14 - 604 y_a14_proc_1 >= -1
 c296: u_a6 - u_a5 - 1240 y_a5_proc_0 >= -1272
 c297: u_a5 - u_a6 - 1103 y_a6_proc_0 >= -1239
 c298: u_a7 - u_a5 - 1240 y_a5_proc_0 >= -1
 c299: u_a5 - u_a7 - 966 y_a7_proc_0 >= 0
 c300: u_a8 - u_a5 - 1240 y_a5_proc_0 >= 0
 c301: u_a5 - u_a8 - 989 y_a8_proc_0 >= -1
 c302: u_a9 - u_a5 - 1240 y_a5_proc_0 >= -1
 c303: u_a5 - u_a9 - 809 y_a9_proc_0 >= 0
 c304: u_a10 - u_a5 - 1240 y_a5_proc_0 >= -1272
 c305: u_a5 - u_a10 - 858 y_a10_proc_0 >= -1239
 c306: u_a11 - u_a5 - 1240 y_a5_proc_0 >= -1272
 c307: u_a5 - u_a11 - 1088 y_a11_proc_0 >= -1239
 c308: u_a13 - u_a5 - 1240 y_a5_proc_0 >= 0
 c309: u_a5 - u_a13 - 722 y_a13_proc_0 >= -1
 c310: u_a14 - u_a5 - 1240 y_a5_proc_0 >= -1272
 c311: u_a5 - u_a14 - 1028 y_a14_proc_0 >= -1239
 c312: u_a7 - u_a6 - 1103 y_a6_proc_0 >= -1272
 c313: u_a7 - u_a6 - 986 y_a6_proc_1 >= -1272
 c314: u_a6 - u_a7 - 966 y_a7_proc_0 >= -1239
 c315: u_a6 - u_a7 - 1174 y_a7_proc_1 >= -1239
 c316: u_a8 - u_a6 - 1103 y_a6_proc_0 >= -1272
 c317: u_a8 - u_a6 - 986 y_a6_proc_1 >= -1272
 c318: u_a6 - u_a8 - 989 y_a8_proc_0 >= -1239
 c319: u_a6 - u_a8 - 1179 y_a8_proc_1 >= -1239
 c320: u_a9 - u_a6 - 1103 y_a6_proc_0 >= -1272
 c321: u_a6 - u_a9 - 809 y_a9_proc_0 >= -1239
 c322: u_a10 - u_a6 - 1103 y_a6_proc_0 >= -2511
 c323: u_a10 - u_a6 - 986 y_a6_proc_1 >= -1
 c324: u_a6 - u_a10 - 858 y_a10_proc_0 >= -2510
 c325: u_a6 - u_a10 - 574 y_a10_proc_1 >= 0
 c326: u_a11 - u_a6 - 1103 y_a6_proc_0 >= -2510
 c327: u_a11 - u_a6 - 986 y_a6_proc_1 >= 0
 c328: u_a6 - u_a11 - 1088 y_a11_proc_0 >= -2511
 c329: u_a6 - u_a11 - 665 y_a11_proc_1 >= -1
 c330: u_a12 - u_a6 - 986 y_a6_proc_1 >= 0
 c331: u_a6 - u_a12 - 1079 y_a12_proc_1 >= -1
 c332: u_a13 - u_a6 - 1103 y_a6_proc_0 >= -1272
 c333: u_a13 - u_a6 - 986 y_a6_proc_1 >= -1272
 c334: u_a6 - u_a13 - 722 y_a13_proc_0 >= -1239
 c335: u_a6 - u_a13 - 726 y_a13_proc_1 >= -1239
 c336: u_a14 - u_a6 - 1103 y_a6_proc_0 >= -2510
 c337: u_a14 - u_a6 - 986 y_a6_proc_1 >= 0
 c338: u_a6 - u_a14 - 1028 y_a14_proc_0 >= -2511
 c339: u_a6 - u_a14 - 604 y_a14_proc_1 >= -1
 c340: u_a8 - u_a7 - 966 y_a7_proc_0 >= 0
 c341: u_a8 - u_a7 - 1174 y_a7_proc_1 >= -2510
 c342: u_a7 - u_a8 - 989 y_a8_proc_0 >= -1
 c343: u_a7 - u_a8 - 1179 y_a8_proc_1 >= -2511
 c344: u_a9 - u_a7 - 966 y_a7_proc_0 >= 0
 c345: u_a7 - u_a9 - 809 y_a9_proc_0 >= -1
 c346: u_a10 - u_a7 - 966 y_a7_proc_0 >= -1272
 c347: u_a10 - u_a7 - 1174 y_a7_proc_1 >= -1272
 c348: u_a7 - u_a10 - 858 y_a10_proc_0 >= -1239
 c349: u_a7 - u_a10 - 574 y_a10_proc_1 >= -1239
 c350: u_a11 - u_a7 - 966 y_a7_proc_0 >= -1272
 c351: u_a11 - u_a7 - 1174 y_a7_proc_1 >= -1272
 c352: u_a7 - u_a11 - 1088 y_a11_proc_0 >= -1239
 c353: u_a7 - u_a11 - 665 y_a11_proc_1 >= -1239
 c354: u_a12 - u_a7 - 1174 y_a7_proc_1 >= -1272
 c355: u_a7 - u_a12 - 1079 y_a12_proc_1 >= -1239
 c356: u_a13 - u_a7 - 966 y_a7_proc_0 >= 0
 c357: u_a13 - u_a7 - 1174 y_a7_proc_1 >= -2510
 c358: u_a7 - u_a13 - 722 y_a13_proc_0 >= -1
 c359: u_a7 - u_a13 - 726 y_a13_proc_1 >= -2511
 c360: u_a14 - u_a7 - 966 y_a7_proc_0 >= -1272
 c361: u_a14 - u_a7 - 1174 y_a7_proc_1 >= -1272
 c362: u_a7 - u_a14 - 1028 y_a14_proc_0 >= -1239
 c363: u_a7 - u_a14 - 604 y_a14_proc_1 >= -1239
 c364: u_a9 - u_a8 - 989 y_a8_proc_0 >= -1
 c365: u_a8 - u_a9 - 809 y_a9_proc_0 >= 0
 c366: u_a10 - u_a8 - 989 y_a8_proc_0 >= -1272
 c367: u_a10 - u_a8 - 1179 y_a8_proc_1 >= -1272
 c368: u_a8 - u_a10 - 858 y_a10_proc_0 >= -1239
 c369: u_a8 - u_a10 - 574 y_a10_proc_1 >= -1239
 c370: u_a11 - u_a8 - 989 y_a8_proc_0 >= -1239
 c371: u_a11 - u_a8 - 1179 y_a8_proc_1 >= -1239
 c372: u_a8 - u_a11 - 1088 y_a11_proc_0 >= -1272
 c373: u_a8 - u_a11 - 665 y_a11_proc_1 >= -1272
 c374: u_a12 - u_a8 - 1179 y_a8_proc_1 >= -1272
 c375: u_a8 - u_a12 - 1079 y_a12_proc_1 >= -1239
 c376: u_a13 - u_a8 - 989 y_a8_proc_0 >= 0
 c377: u_a13 - u_a8 - 1179 y_a8_proc_1 >= -2510
 c378: u_a8 - u_a13 - 722 y_a13_proc_0 >= -1
 c379: u_a8 - u_a13 - 726 y_a13_proc_1 >= -2511
 c380: u_a14 - u_a8 - 989 y_a8_proc_0 >= -1239
 c381: u_a14 - u_a8 - 1179 y_a8_proc_1 >= -1239
 c382: u_a8 - u_a14 - 1028 y_a14_proc_0 >= -1272
 c383: u_a8 - u_a14 - 604 y_a14_proc_1 >= -1272
 c384: u_a10 - u_a9 - 809 y_a9_proc_0 >= -1272
 c385: u_a9 - u_a10 - 858 y_a10_proc_0 >= -1239
 c386: u_a11 - u_a9 - 809 y_a9_proc_0 >= -1239
 c387: u_a9 - u_a11 - 1088 y_a11_proc_0 >= -1272
 c388: u_a13 - u_a9 - 809 y_a9_proc_0 >= 0
 c389: u_a9 - u_a13 - 722 y_a13_proc_0 >= -1
 c390: u_a14 - u_a9 - 809 y_a9_proc_0 >= -1272
 c391: u_a9 - u_a14 - 1028 y_a14_proc_0 >= -1239
 c392: u_a11 - u_a10 - 858 y_a10_proc_0 >= -2510
 c393: u_a11 - u_a10 - 574 y_a10_proc_1 >= 0
 c394: u_a10 - u_a11 - 1088 y_a11_proc_0 >= -2511
 c395: u_a10 - u_a11 - 665 y_a11_proc_1 >= -1
 c396: u_a12 - u_a10 - 574 y_a10_proc_1 >= 0
 c397: u_a10 - u_a12 - 1079 y_a12_proc_1 >= -1
 c398: u_a13 - u_a10 - 858 y_a10_proc_0 >= -1272
 c399: u_a13 - u_a10 - 574 y_a10_proc_1 >= -1272
 c400: u_a10 - u_a13 - 722 y_a13_proc_0 >= -1239
 c401: u_a10 - u_a13 - 726 y_a13_proc_1 >= -1239
 c402: u_a14 - u_a10 - 858 y_a10_proc_0 >= -2510
 c403: u_a14 - u_a10 - 574 y_a10_proc_1 >= 0
 c404: u_a10 - u_a14 - 1028 y_a14_proc_0 >= -2511
 c405: u_a10 - u_a14 - 604 y_a14_proc_1 >= -1
 c406: u_a12 - u_a11 - 665 y_a11_proc_1 >= -1
 c407: u_a11 - u_a12 - 1079 y_a12_proc_1 >= 0
 c408: u_a13 - u_a11 - 1088 y_a11_proc_0 >= -1239
 c409: u_a13 - u_a11 - 665 y_a11_proc_1 >= -1239
 c410: u_a11 - u_a13 - 722 y_a13_proc_0 >= -1272
 c411: u_a11 - u_a13 - 726 y_a13_proc_1 >= -1272
 c412: u_a14 - u_a11 - 1088 y_a11_proc_0 >= -2511
 c413: u_a14 - u_a11 - 665 y_a11_proc_1 >= -1
 c414: u_a11 - u_a14 - 1028 y_a14_proc_0 >= -2510
 c415: u_a11 - u_a14 - 604 y_a14_proc_1 >= 0
 c416: u_a13 - u_a12 - 1079 y_a12_proc_1 >= -1239
 c417: u_a12 - u_a13 - 726 y_a13_proc_1 >= -1272
 c418: u_a14 - u_a12 - 1079 y_a12_proc_1 >= -1
 c419: u_a12 - u_a14 - 604 y_a14_proc_1 >= 0
 c420: u_a14 - u_a13 - 722 y_a13_proc_0 >= -1272
 c421: u_a14 - u_a13 - 726 y_a13_proc_1 >= -1272
 c422: u_a13 - u_a14 - 1028 y_a14_proc_0 >= -1239
 c423: u_a13 - u_a14 - 604 y_a14_proc_1 >= -1239

Bounds
End
